100
3 5
3 62
20 87
26 91
17 60
20 68
0 98
3 44
9 29
12 28
10 17
7 4
15 30
9 68
21 40
17 61
6 44
1 32
13 88
28 50
28 92
20 98
5 8
7 14
4 74
14 11
8 16
26 3
3 75
5 25
29 54
19 64
26 67
15 82
2 72
24 3
24 50
20 7
1 49
5 0
23 67
3 71
16 31
17 81
27 49
6 74
21 98
15 55
29 87
19 20
13 22
24 76
13 77
28 87
27 56
25 6
29 50
14 58
19 56
27 93
29 98
26 13
20 10
8 61
11 10
22 9
17 57
16 8
15 72
20 17
25 34
25 55
5 4
10 71
24 5
25 18
3 83
6 4
25 4
14 96
17 99
8 98
6 95
19 94
1 54
18 0
25 86
13 73
6 73
10 55
23 12
8 85
19 57
21 94
20 7
6 27
25 47
4 14
0 31
7 14
